p cnf 214 998
133 135 152 195 0
99 120 127 0
79 106 108 0
114 118 0
104 134 140 0
67 70 102 145 155 0
60 62 144 156 0
117 158 0
130 159 0
103 142 151 203 0
95 177 205 0
89 122 188 198 0
80 85 110 121 0
75 78 115 207 209 0
73 125 149 0
66 68 71 101 0
59 61 88 91 161 0
163 164 166 167 0
168 169 170 191 0
171 172 0
94 174 0
76 112 119 0
179 181 0
64 183 0
137 184 185 0
96 141 0
176 186 0
81 123 189 0
77 109 0
90 93 157 190 0
173 192 0
132 139 193 0
153 196 0
83 86 197 0
74 111 201 202 0
97 129 150 204 0
143 178 187 206 0
87 175 199 0
116 208 210 0
105 212 214 0
57 58 147 0
51 53 54 56 92 0
-49 -144 0
-48 -49 0
-49 -159 0
-49 -151 0
-48 -144 0
-144 -159 0
-144 -151 0
-48 -159 0
-48 -151 0
-151 -159 0
-78 -121 0
-47 -121 0
-55 -121 0
-91 -121 0
-47 -78 0
-55 -78 0
-78 -91 0
-47 -55 0
-47 -91 0
-55 -91 0
-138 -171 0
-171 -194 0
-45 -171 0
-112 -171 0
-138 -194 0
-45 -138 0
-112 -138 0
-45 -194 0
-112 -194 0
-45 -112 0
-44 -69 0
-44 -183 0
-42 -44 0
-44 -184 0
-69 -183 0
-42 -69 0
-69 -184 0
-42 -183 0
-183 -184 0
-42 -184 0
-129 -143 0
-129 -175 0
-105 -129 0
-41 -129 0
-143 -175 0
-105 -143 0
-41 -143 0
-105 -175 0
-41 -175 0
-41 -105 0
-49 -121 0
-49 -171 0
-44 -49 0
-49 -129 0
-121 -171 0
-44 -121 0
-121 -129 0
-44 -171 0
-129 -171 0
-44 -129 0
-78 -144 0
-138 -144 0
-69 -144 0
-143 -144 0
-78 -138 0
-69 -78 0
-78 -143 0
-69 -138 0
-138 -143 0
-69 -143 0
-47 -48 0
-48 -194 0
-48 -183 0
-48 -175 0
-47 -194 0
-47 -183 0
-47 -175 0
-183 -194 0
-175 -194 0
-175 -183 0
-55 -159 0
-45 -159 0
-42 -159 0
-105 -159 0
-45 -55 0
-42 -55 0
-55 -105 0
-42 -45 0
-45 -105 0
-42 -105 0
-91 -151 0
-112 -151 0
-151 -184 0
-41 -151 0
-91 -112 0
-91 -184 0
-41 -91 0
-112 -184 0
-41 -112 0
-41 -184 0
-39 -135 0
-102 -135 0
-39 -102 0
-165 -201 0
-38 -165 0
-38 -201 0
-147 -150 0
-56 -150 0
-56 -147 0
-135 -165 0
-135 -150 0
-150 -165 0
-39 -201 0
-39 -147 0
-147 -201 0
-38 -102 0
-56 -102 0
-38 -56 0
-37 -120 0
-108 -120 0
-120 -180 0
-37 -108 0
-37 -180 0
-108 -180 0
-62 -117 0
-36 -62 0
-62 -205 0
-36 -117 0
-117 -205 0
-36 -205 0
-115 -125 0
-101 -115 0
-115 -163 0
-101 -125 0
-125 -163 0
-101 -163 0
-35 -123 0
-123 -213 0
-93 -123 0
-35 -213 0
-35 -93 0
-93 -213 0
-62 -120 0
-115 -120 0
-120 -123 0
-62 -115 0
-62 -123 0
-115 -123 0
-37 -117 0
-37 -125 0
-35 -37 0
-117 -125 0
-35 -117 0
-35 -125 0
-36 -108 0
-101 -108 0
-108 -213 0
-36 -101 0
-36 -213 0
-101 -213 0
-180 -205 0
-163 -180 0
-93 -180 0
-163 -205 0
-93 -205 0
-93 -163 0
-71 -75 0
-61 -75 0
-61 -71 0
-131 -174 0
-76 -131 0
-76 -174 0
-116 -206 0
-124 -206 0
-116 -124 0
-75 -131 0
-75 -206 0
-131 -206 0
-71 -174 0
-71 -116 0
-116 -174 0
-61 -76 0
-61 -124 0
-76 -124 0
-127 -195 0
-34 -195 0
-104 -195 0
-43 -195 0
-70 -195 0
-34 -127 0
-104 -127 0
-43 -127 0
-70 -127 0
-34 -104 0
-34 -43 0
-34 -70 0
-43 -104 0
-70 -104 0
-43 -70 0
-156 -182 0
-32 -182 0
-182 -203 0
-95 -182 0
-182 -198 0
-32 -156 0
-156 -203 0
-95 -156 0
-156 -198 0
-32 -203 0
-32 -95 0
-32 -198 0
-95 -203 0
-198 -203 0
-95 -198 0
-85 -207 0
-85 -211 0
-85 -88 0
-85 -164 0
-85 -168 0
-207 -211 0
-88 -207 0
-164 -207 0
-168 -207 0
-88 -211 0
-164 -211 0
-168 -211 0
-88 -164 0
-88 -168 0
-164 -168 0
-31 -154 0
-31 -64 0
-31 -137 0
-31 -128 0
-31 -141 0
-64 -154 0
-137 -154 0
-128 -154 0
-141 -154 0
-64 -137 0
-64 -128 0
-64 -141 0
-128 -137 0
-137 -141 0
-128 -141 0
-176 -189 0
-109 -176 0
-65 -176 0
-176 -190 0
-160 -176 0
-109 -189 0
-65 -189 0
-189 -190 0
-160 -189 0
-65 -109 0
-109 -190 0
-109 -160 0
-65 -190 0
-65 -160 0
-160 -190 0
-30 -192 0
-30 -193 0
-30 -197 0
-30 -202 0
-29 -30 0
-192 -193 0
-192 -197 0
-192 -202 0
-29 -192 0
-193 -197 0
-193 -202 0
-29 -193 0
-197 -202 0
-29 -197 0
-29 -202 0
-182 -195 0
-85 -195 0
-31 -195 0
-176 -195 0
-30 -195 0
-85 -182 0
-31 -182 0
-176 -182 0
-30 -182 0
-31 -85 0
-85 -176 0
-30 -85 0
-31 -176 0
-30 -31 0
-30 -176 0
-127 -156 0
-127 -207 0
-127 -154 0
-127 -189 0
-127 -192 0
-156 -207 0
-154 -156 0
-156 -189 0
-156 -192 0
-154 -207 0
-189 -207 0
-192 -207 0
-154 -189 0
-154 -192 0
-189 -192 0
-32 -34 0
-34 -211 0
-34 -64 0
-34 -109 0
-34 -193 0
-32 -211 0
-32 -64 0
-32 -109 0
-32 -193 0
-64 -211 0
-109 -211 0
-193 -211 0
-64 -109 0
-64 -193 0
-109 -193 0
-104 -203 0
-88 -104 0
-104 -137 0
-65 -104 0
-104 -197 0
-88 -203 0
-137 -203 0
-65 -203 0
-197 -203 0
-88 -137 0
-65 -88 0
-88 -197 0
-65 -137 0
-137 -197 0
-65 -197 0
-43 -95 0
-43 -164 0
-43 -128 0
-43 -190 0
-43 -202 0
-95 -164 0
-95 -128 0
-95 -190 0
-95 -202 0
-128 -164 0
-164 -190 0
-164 -202 0
-128 -190 0
-128 -202 0
-190 -202 0
-70 -198 0
-70 -168 0
-70 -141 0
-70 -160 0
-29 -70 0
-168 -198 0
-141 -198 0
-160 -198 0
-29 -198 0
-141 -168 0
-160 -168 0
-29 -168 0
-141 -160 0
-29 -141 0
-29 -160 0
-28 -133 0
-27 -133 0
-106 -133 0
-118 -133 0
-26 -133 0
-133 -145 0
-27 -28 0
-28 -106 0
-28 -118 0
-26 -28 0
-28 -145 0
-27 -106 0
-27 -118 0
-26 -27 0
-27 -145 0
-106 -118 0
-26 -106 0
-106 -145 0
-26 -118 0
-118 -145 0
-26 -145 0
-24 -25 0
-25 -158 0
-23 -25 0
-25 -130 0
-25 -177 0
-25 -89 0
-24 -158 0
-23 -24 0
-24 -130 0
-24 -177 0
-24 -89 0
-23 -158 0
-130 -158 0
-158 -177 0
-89 -158 0
-23 -130 0
-23 -177 0
-23 -89 0
-130 -177 0
-89 -130 0
-89 -177 0
-22 -80 0
-80 -149 0
-68 -80 0
-52 -80 0
-80 -166 0
-80 -169 0
-22 -149 0
-22 -68 0
-22 -52 0
-22 -166 0
-22 -169 0
-68 -149 0
-52 -149 0
-149 -166 0
-149 -169 0
-52 -68 0
-68 -166 0
-68 -169 0
-52 -166 0
-52 -169 0
-166 -169 0
-21 -172 0
-20 -172 0
-94 -172 0
-172 -200 0
-19 -172 0
-172 -179 0
-20 -21 0
-21 -94 0
-21 -200 0
-19 -21 0
-21 -179 0
-20 -94 0
-20 -200 0
-19 -20 0
-20 -179 0
-94 -200 0
-19 -94 0
-94 -179 0
-19 -200 0
-179 -200 0
-19 -179 0
-77 -186 0
-46 -186 0
-18 -186 0
-146 -186 0
-90 -186 0
-17 -186 0
-46 -77 0
-18 -77 0
-77 -146 0
-77 -90 0
-17 -77 0
-18 -46 0
-46 -146 0
-46 -90 0
-17 -46 0
-18 -146 0
-18 -90 0
-17 -18 0
-90 -146 0
-17 -146 0
-17 -90 0
-16 -139 0
-16 -196 0
-16 -126 0
-16 -33 0
-16 -111 0
-15 -16 0
-139 -196 0
-126 -139 0
-33 -139 0
-111 -139 0
-15 -139 0
-126 -196 0
-33 -196 0
-111 -196 0
-15 -196 0
-33 -126 0
-111 -126 0
-15 -126 0
-33 -111 0
-15 -33 0
-15 -111 0
-199 -204 0
-84 -204 0
-204 -208 0
-204 -212 0
-58 -204 0
-54 -204 0
-84 -199 0
-199 -208 0
-199 -212 0
-58 -199 0
-54 -199 0
-84 -208 0
-84 -212 0
-58 -84 0
-54 -84 0
-208 -212 0
-58 -208 0
-54 -208 0
-58 -212 0
-54 -212 0
-54 -58 0
-25 -133 0
-80 -133 0
-133 -172 0
-133 -186 0
-16 -133 0
-133 -204 0
-25 -80 0
-25 -172 0
-25 -186 0
-16 -25 0
-25 -204 0
-80 -172 0
-80 -186 0
-16 -80 0
-80 -204 0
-172 -186 0
-16 -172 0
-172 -204 0
-16 -186 0
-186 -204 0
-16 -204 0
-24 -28 0
-22 -28 0
-21 -28 0
-28 -77 0
-28 -139 0
-28 -199 0
-22 -24 0
-21 -24 0
-24 -77 0
-24 -139 0
-24 -199 0
-21 -22 0
-22 -77 0
-22 -139 0
-22 -199 0
-21 -77 0
-21 -139 0
-21 -199 0
-77 -139 0
-77 -199 0
-139 -199 0
-27 -158 0
-27 -149 0
-20 -27 0
-27 -46 0
-27 -196 0
-27 -84 0
-149 -158 0
-20 -158 0
-46 -158 0
-158 -196 0
-84 -158 0
-20 -149 0
-46 -149 0
-149 -196 0
-84 -149 0
-20 -46 0
-20 -196 0
-20 -84 0
-46 -196 0
-46 -84 0
-84 -196 0
-23 -106 0
-68 -106 0
-94 -106 0
-18 -106 0
-106 -126 0
-106 -208 0
-23 -68 0
-23 -94 0
-18 -23 0
-23 -126 0
-23 -208 0
-68 -94 0
-18 -68 0
-68 -126 0
-68 -208 0
-18 -94 0
-94 -126 0
-94 -208 0
-18 -126 0
-18 -208 0
-126 -208 0
-118 -130 0
-52 -118 0
-118 -200 0
-118 -146 0
-33 -118 0
-118 -212 0
-52 -130 0
-130 -200 0
-130 -146 0
-33 -130 0
-130 -212 0
-52 -200 0
-52 -146 0
-33 -52 0
-52 -212 0
-146 -200 0
-33 -200 0
-200 -212 0
-33 -146 0
-146 -212 0
-33 -212 0
-26 -177 0
-26 -166 0
-19 -26 0
-26 -90 0
-26 -111 0
-26 -58 0
-166 -177 0
-19 -177 0
-90 -177 0
-111 -177 0
-58 -177 0
-19 -166 0
-90 -166 0
-111 -166 0
-58 -166 0
-19 -90 0
-19 -111 0
-19 -58 0
-90 -111 0
-58 -90 0
-58 -111 0
-89 -145 0
-145 -169 0
-145 -179 0
-17 -145 0
-15 -145 0
-54 -145 0
-89 -169 0
-89 -179 0
-17 -89 0
-15 -89 0
-54 -89 0
-169 -179 0
-17 -169 0
-15 -169 0
-54 -169 0
-17 -179 0
-15 -179 0
-54 -179 0
-15 -17 0
-17 -54 0
-15 -54 0
-60 -103 0
-60 -122 0
-103 -122 0
-14 -185 0
-14 -96 0
-96 -185 0
-148 -178 0
-53 -178 0
-53 -148 0
-14 -60 0
-60 -178 0
-14 -178 0
-103 -185 0
-103 -148 0
-148 -185 0
-96 -122 0
-53 -122 0
-53 -96 0
-82 -99 0
-99 -114 0
-99 -140 0
-13 -99 0
-67 -99 0
-82 -114 0
-82 -140 0
-13 -82 0
-67 -82 0
-114 -140 0
-13 -114 0
-67 -114 0
-13 -140 0
-67 -140 0
-13 -67 0
-73 -209 0
-50 -209 0
-59 -209 0
-167 -209 0
-170 -209 0
-50 -73 0
-59 -73 0
-73 -167 0
-73 -170 0
-50 -59 0
-50 -167 0
-50 -170 0
-59 -167 0
-59 -170 0
-167 -170 0
-11 -12 0
-12 -107 0
-12 -119 0
-10 -12 0
-12 -181 0
-11 -107 0
-11 -119 0
-10 -11 0
-11 -181 0
-107 -119 0
-10 -107 0
-107 -181 0
-10 -119 0
-119 -181 0
-10 -181 0
-9 -81 0
-81 -100 0
-8 -81 0
-81 -157 0
-81 -162 0
-9 -100 0
-8 -9 0
-9 -157 0
-9 -162 0
-8 -100 0
-100 -157 0
-100 -162 0
-8 -157 0
-8 -162 0
-157 -162 0
-153 -173 0
-7 -173 0
-86 -173 0
-74 -173 0
-6 -173 0
-7 -153 0
-86 -153 0
-74 -153 0
-6 -153 0
-7 -86 0
-7 -74 0
-6 -7 0
-74 -86 0
-6 -86 0
-6 -74 0
-5 -187 0
-187 -214 0
-4 -187 0
-57 -187 0
-92 -187 0
-5 -214 0
-4 -5 0
-5 -57 0
-5 -92 0
-4 -214 0
-57 -214 0
-92 -214 0
-4 -57 0
-4 -92 0
-57 -92 0
-99 -209 0
-12 -99 0
-81 -99 0
-99 -173 0
-99 -187 0
-12 -209 0
-81 -209 0
-173 -209 0
-187 -209 0
-12 -81 0
-12 -173 0
-12 -187 0
-81 -173 0
-81 -187 0
-173 -187 0
-73 -82 0
-11 -82 0
-9 -82 0
-82 -153 0
-5 -82 0
-11 -73 0
-9 -73 0
-73 -153 0
-5 -73 0
-9 -11 0
-11 -153 0
-5 -11 0
-9 -153 0
-5 -9 0
-5 -153 0
-50 -114 0
-107 -114 0
-100 -114 0
-7 -114 0
-114 -214 0
-50 -107 0
-50 -100 0
-7 -50 0
-50 -214 0
-100 -107 0
-7 -107 0
-107 -214 0
-7 -100 0
-100 -214 0
-7 -214 0
-59 -140 0
-119 -140 0
-8 -140 0
-86 -140 0
-4 -140 0
-59 -119 0
-8 -59 0
-59 -86 0
-4 -59 0
-8 -119 0
-86 -119 0
-4 -119 0
-8 -86 0
-4 -8 0
-4 -86 0
-13 -167 0
-10 -13 0
-13 -157 0
-13 -74 0
-13 -57 0
-10 -167 0
-157 -167 0
-74 -167 0
-57 -167 0
-10 -157 0
-10 -74 0
-10 -57 0
-74 -157 0
-57 -157 0
-57 -74 0
-67 -170 0
-67 -181 0
-67 -162 0
-6 -67 0
-67 -92 0
-170 -181 0
-162 -170 0
-6 -170 0
-92 -170 0
-162 -181 0
-6 -181 0
-92 -181 0
-6 -162 0
-92 -162 0
-6 -92 0
-3 -152 0
-79 -152 0
-134 -152 0
-152 -155 0
-3 -79 0
-3 -134 0
-3 -155 0
-79 -134 0
-79 -155 0
-134 -155 0
-2 -63 0
-63 -136 0
-63 -142 0
-63 -188 0
-2 -136 0
-2 -142 0
-2 -188 0
-136 -142 0
-136 -188 0
-142 -188 0
-40 -110 0
-66 -110 0
-110 -161 0
-110 -191 0
-40 -66 0
-40 -161 0
-40 -191 0
-66 -161 0
-66 -191 0
-161 -191 0
-1 -132 0
-1 -98 0
-1 -83 0
-1 -113 0
-98 -132 0
-83 -132 0
-113 -132 0
-83 -98 0
-98 -113 0
-83 -113 0
-87 -97 0
-97 -210 0
-72 -97 0
-51 -97 0
-87 -210 0
-72 -87 0
-51 -87 0
-72 -210 0
-51 -210 0
-51 -72 0
-63 -152 0
-110 -152 0
-1 -152 0
-97 -152 0
-63 -110 0
-1 -63 0
-63 -97 0
-1 -110 0
-97 -110 0
-1 -97 0
-2 -3 0
-3 -40 0
-3 -132 0
-3 -87 0
-2 -40 0
-2 -132 0
-2 -87 0
-40 -132 0
-40 -87 0
-87 -132 0
-79 -136 0
-66 -79 0
-79 -98 0
-79 -210 0
-66 -136 0
-98 -136 0
-136 -210 0
-66 -98 0
-66 -210 0
-98 -210 0
-134 -142 0
-134 -161 0
-83 -134 0
-72 -134 0
-142 -161 0
-83 -142 0
-72 -142 0
-83 -161 0
-72 -161 0
-72 -83 0
-155 -188 0
-155 -191 0
-113 -155 0
-51 -155 0
-188 -191 0
-113 -188 0
-51 -188 0
-113 -191 0
-51 -191 0
-51 -113 0
